0 0 0 0
0 1 2 0
0 2 0 0
0 3 0 0
0 4 0 3
0 5 0 4
0 6 1 2
0 7 0 9
0 8 2 9
0 9 2 2
0 10 2 18
0 11 2 9
0 12 2 3
0 13 0 11
0 14 0 9
0 15 0 5
0 16 1 16
0 17 1 15
0 18 0 14
0 19 0 11
0 20 0 11
0 21 0 15
0 22 0 14
0 23 2 18
0 24 0 22
0 25 1 24
0 26 0 24
0 27 2 18
0 28 0 27
0 29 2 22
0 30 1 22
0 31 0 29
